outputs/case_60.model.txt
dispose_subsidiary_shares_ordered = False
total_voting_shares = 100
legal_person_and_spouse_second_degree_relative = False
max_allowed_directors = 5
revocation_resolution_ordered = False
remove_manager_staff_ordered = False
total_capital = 100
established_under_law = True
remove_director_supervisor_ordered = False
direct_indirect_appointed_directors = 1
total_subsidiary_shares = 0
shares_held_by_related_enterprise_legal = 0
shares_held_spouse_minor_children = 0
subsidiary_directors_appointed = 0
revoke_license_ordered = False
related_enterprise_board_chair_or_majority_directors = False
notification_sent = False
direct_indirect_appointed_directors_by_fhc = 0
same_legal_person = False
total_shares = 100
capital_held_by_fhc = 0
is_securities_subsidiary = False
spouse_or_second_degree_relative = False
same_natural_person = False
is_insurance_subsidiary = False
dispose_completed_within_deadline = False
stop_subsidiary_business_ordered = False
company_law_articles_applied = True
capital_held = 0
correction_flag = False
subsidiary_shares_held = 0
voting_shares_held = 30
total_shares_legal = -23/3200
shares_held = 0
voting_shares_held_by_fhc = 30
violation_flag = True
is_bank_subsidiary = False
shares_held_by_related_enterprise = 0
related_enterprise_board_chair_or_majority_directors_legal = True
prohibited_use_name_flag = False
liquidation_ordered = False
notify_economic_ministry = False
penalty_dispose_subsidiary_shares = False
penalty_stop_subsidiary_business = False
is_subsidiary = False
related_enterprise = True
control_shareholding = 1
same_person = False
same_person_related_natural = False
penalty_revocation_resolution = False
penalty = False
major_shareholder = False
same_person_related_legal = False
penalty_remove_director_supervisor = False
correction_ordered = False
is_fhc = True
penalty_remove_manager_staff = False
prohibited_use_fhc_name = False
violation_exists = True
dispose_shares_within_deadline = False
penalty_revoke_license = False
/0 = [(30, 100) -> 3/10, else -> 0]